g9 0 1 0 5 20170614 0 4 0 240	# problem ex14_2_2
 4 5 1 0 1	# vars, constraints, objectives, ranges, eqns
 4 0	# nonlinear constraints, objectives
 0 0	# network constraints: nonlinear, linear
 3 0 0	# nonlinear vars in constraints, objectives, both
 0 0 0 1	# linear network variables; functions; arith, flags
 0 0 0 0 0	# discrete variables: binary, integer, nonlinear (b,c,o)
 18 1	# nonzeros in Jacobian, gradients
 0 0	# max name lengths: constraints, variables
 0 0 0 0 0	# common exprs: b,c,o,c1,o1
b
0 1e-06 1
0 1e-06 1
0 20 80
2 0
x3
0 0.624
1 0.376
2 58.129
r
1 12.9738026256517
1 10.2081676704566
1 -12.9738026256517
1 -10.2081676704566
4 1
C0
o54
4
o43
o0
v0
o2
n0.191987347447993
v1
o3
v0
o0
v0
o2
n0.191987347447993
v1
o3
o2
n0.315693799947296
v1
o0
o2
n0.315693799947296
v0
v1
o3
n3643.31361767678
o0
n239.726
v2
C1
o54
4
o43
o0
o2
n0.315693799947296
v0
v1
o3
o2
n0.191987347447993
v0
o0
v0
o2
n0.191987347447993
v1
o3
v1
o0
o2
n0.315693799947296
v0
v1
o3
n2755.64173589155
o0
n219.161
v2
C2
o16
o54
4
o43
o0
v0
o2
n0.191987347447993
v1
o3
v0
o0
v0
o2
n0.191987347447993
v1
o3
o2
n0.315693799947296
v1
o0
o2
n0.315693799947296
v0
v1
o3
n3643.31361767678
o0
n239.726
v2
C3
o16
o54
4
o43
o0
o2
n0.315693799947296
v0
v1
o3
o2
n0.191987347447993
v0
o0
v0
o2
n0.191987347447993
v1
o3
v1
o0
o2
n0.315693799947296
v0
v1
o3
n2755.64173589155
o0
n219.161
v2
C4
n0
O0 0
n0
k3
5
10
14
J0 4
0 0
1 0
2 0
3 -1
J1 4
0 0
1 0
2 0
3 -1
J2 4
0 0
1 0
2 0
3 -1
J3 4
0 0
1 0
2 0
3 -1
J4 2
0 1
1 1
G0 1
3 1
